(set-logic UFDT)
(declare-datatypes ((nat 0)) (((zero) (s (s0 nat)))))
(declare-fun add (nat nat) nat)
(declare-fun leq (nat nat) Bool)
(assert (forall ((y nat)) (= (add zero y) y)))
(assert (forall ((x nat) (y nat)) (= (add (s x) y) (s (add x y)))))
(assert (forall ((y nat)) (leq zero y)))
(assert (forall ((x nat)) (not (leq (s x) zero))))
(assert (forall ((x nat) (y nat)) (= (leq (s x) (s y)) (leq x y))))
(assert (not (forall ((v0 nat) (v1 nat) (v2 nat) (v3 nat) (v4 nat)) (= (add (s (s (add (s (s v1)) (add (add (add (add (s zero) (s (s v4))) (s v2)) (s v4)) (add v0 (s (s v3))))))) (add zero (s v0))) (s (add (add (add (s v4) (s zero)) v0) (add (s (add (s (s (add (add (s (s v2)) (s (s v3))) (add v0 v4)))) zero)) (s (s v1)))))))))
(check-sat)
